NAME : 4x4
COMMENT : 
TYPE : TSP
DIMENSION : 16
EDGE_WEIGHT_TYPE : EUC_2D
NODE_COORD_SECTION
1 0 0
2 0 1
3 0 2
4 0 3
5 1 0
6 1 1
7 1 2
8 1 3
9 2 0
10 2 1
11 2 2
12 2 3
13 3 0
14 3 1
15 3 2
16 3 3
EOF
